100 10
650 499
653 270
621 414
422 851
664 906
271 447
496 624
410 377
469 613
483 592
312 516
403 706
398 701
547 526
434 553
404 539
733 269
668 428
336 467
817 676
751 771
445 582
613 255
594 647
292 366
403 499
604 598
125 332
626 738
506 460
419 491
178 447
891 704
257 551
640 624
731 479
514 602
706 927
433 928
393 737
277 440
481 384
541 777
749 600
432 752
190 789
428 823
617 830
702 781
368 418
631 589
575 768
418 502
691 552
791 549
487 467
930 679
532 703
238 507
64 352
392 672
361 451
456 399
418 578
209 660
354 360
722 548
628 881
822 134
240 348
893 801
229 841
564 329
392 549
516 521
654 544
235 466
277 632
878 758
331 829
434 710
250 207
393 616
663 492
383 792
434 377
574 725
386 421
787 636
506 886
220 605
825 454
358 296
387 495
647 477
343 564
754 616
379 213
428 333
423 451
